NAME : ClusterId_1047 
COMMENT : (Gillet and Johnson) 
TYPE : CVRP 
DIMENSION : 19 
EDGE_WEIGHT_TYPE : EUC_2D 
CAPACITY : 500 
NODE_COORD_SECTION 
1047 1756 4108 
32 1158 4387 
683 1196 4138 
455 1347 4583 
945 1316 4177 
730 1545 4027 
755 1718 4508 
305 1700 4350 
731 1578 3753 
908 1821 4297 
816 1852 3792 
974 1936 4160 
254 1960 4234 
441 1880 3822 
620 2002 4219 
145 1968 2861 
213 1984 3343 
584 2043 3358 
941 2113 2869 
DEMAND_SECTION 
1047 734
32 48
683 28
455 36
945 27
730 55
755 46
305 49
731 49
908 34
816 30
974 50
254 44
441 47
620 27
145 37
213 47
584 48
941 29
DEPOT_SECTION 
1047
 -1
EOF